(set-info :Origin "This instance was generated by: BanditFuzz-- an RL fuzzer for SMT solvers" )
(set-info :Author "Joe Scott, Fed Mora, Vijay Ganesh" )
(set-info :Contact "Joe Scott, joseph.scott@uwaterloo.ca")
(set-logic QF_BV)
(declare-const bool_0 Bool)
(declare-const bool_1 Bool)
(declare-const bool_2 Bool)
(declare-const bool_3 Bool)
(declare-const bool_4 Bool)
(declare-const bv_0 (_ BitVec 32))
(declare-const bv_1 (_ BitVec 32))
(declare-const bv_2 (_ BitVec 32))
(declare-const bv_3 (_ BitVec 32))
(declare-const bv_4 (_ BitVec 32))
(assert (not (xor (bvsgt bv_3 bv_4) (bvugt bv_1 #xc01e30e2 ))))
(assert (bvule (bvnand (bvnand #xd7b828b4  bv_1) (bvsub bv_2 bv_1)) (bvsmod (bvurem bv_3 #x1131340f ) (bvurem bv_4 bv_4))))
(assert (bvule (bvmul (bvnand #xd92c8cbf  bv_1) (bvsub #xfbf0b07a  bv_1)) (bvsub (bvsrem #x2359c125  bv_2) (bvashr #xda1704e1  bv_1))))
(assert (bvugt (bvashr (bvashr #xc749ee02  bv_4) (bvand bv_4 bv_0)) (bvlshr (bvmul #x1a340c70  bv_3) (bvurem bv_4 #x62ed1b5b ))))
(assert (bvsle (bvurem (bvsub bv_0 #xafbe8733 ) (bvsdiv bv_3 bv_3)) (bvnor (bvudiv bv_3 bv_2) (bvsmod bv_2 #x8ea00aaf ))))
(check-sat)
(exit)
